2 6 8 5 12 16 3 1 10 7 18 14 11 15 9 4 19 0 17 13  
2 6 8 5 12 16 3 1 10 7 18 14 11 15 9 4 19 0 17 13  
2 6 8 5 12 16 3 10 18 14 11 9 15 7 1 4 17 0 19 13  
2 6 8 5 12 16 3 1 10 4 14 15 18 7 11 9 19 0 17 13  
2 6 8 5 12 16 3 1 10 7 18 14 11 15 9 4 19 0 17 13  
2 6 8 5 12 16 3 1 10 7 18 14 11 0 9 15 4 17 19 13  
2 6 8 5 12 16 3 1 10 7 18 14 11 0 15 9 4 17 19 13  
2 6 8 5 12 16 3 1 4 7 18 14 11 0 10 9 15 17 19 13  
2 6 8 5 12 15 3 1 19 10 4 14 18 13 9 7 16 17 0 11  
2 6 8 5 12 16 3 18 7 14 11 0 1 10 9 4 15 17 19 13  
2 6 8 5 12 16 3 18 7 4 0 14 15 1 10 11 9 17 19 13  
2 6 8 5 12 16 3 18 7 14 0 19 15 1 10 11 9 4 17 13  
2 6 8 5 12 16 3 1 10 18 14 11 9 19 0 7 4 17 15 13  
2 6 8 5 12 16 3 1 10 18 7 4 14 11 0 19 13 9 15 17  
2 6 8 5 12 16 3 18 7 1 0 14 15 19 10 11 9 4 17 13  
2 6 8 5 12 16 3 18 4 14 11 0 9 1 10 7 15 17 19 13  
2 6 8 5 12 16 3 1 10 18 14 11 15 9 4 19 0 7 17 13  
2 6 8 11 5 12 1 16 14 7 17 0 10 18 9 4 19 3 15 13  
